3 500
183+189+117+322+177+400+487+396+343+330+341+419+155+457+41+360+397+249+435+408+310+154+2+376+106+392+367+93+388+111+370+347+287+139+291+252+260+140+13+412+437+234+32+369+445+196+213+447+253+250+441+420+77+24+309+373+423+478+3+50+361+121+496+58+149+243+23+379+37+137+450+336+132+168+481+86+205+422+460+67+19+293+352+402+7+491+68+329+251+63+51+334+172+492+356+270+459+327+399+458+27+416+30+476+143+382+178+144+427+223+240+147+209+110+301+150+438+284+43+418+188+319+317+215+304+81+300+1+436+273+4+467+472+462+294+466+211+428+94+451+200+45+136+214+212+210+238+114+292+430+263+414+281+159+261+112+87+456+398+368+264+141+96+345+230+409+355+461+242+198+105+171+432+424+52+314+383+337+237+244+197+122+262+156+401+488+473+28+145+29+483+340+364+486+385+499+59+239+275+109+115+495+391+185+42+339+64+429+372+184+47+453+138+74+18+296+316+354+282+497+173+298+474+151+283+10+15+89+271+346+381+321+187+246+206+390+374+324+228+192+351+66+365+434+142+384+463+490+233+482+56+186+485+202+454+221+305+79+153+101+116+165+274+39+217+46+299+88+148+410+71+21+332+174+49+290+179+443+348+335+258+36+297+175+162+107+55+471+267+257+431+69+331+57+226+406+285+180+268+439+161+269+11+146+38+255+25+170+190+433+130+248+193+254+480+17+303+80+259+266+35+446+407+320+277+279+256+288+358+357+44+208+135+113+103+405+20+102+342+326+203+232+166+475+31+421+73+104+425+75+131+349+449+65+455+477+26+231+333+97+120+387+169+70+404+218+440+315+22+280+338+124+403+191+195+393+125+160+311+489+323+163+225+16+380+353+395+85+62+306+413+72+220+452+99+245+133+272+128+181+350+289+295+444+78+108+442+95+312+371+204+90+167+182+366+448+76+83+40+386+241+176+307+493+229+479+465+235+61+91+9+123+60+484+48+164+158+201+152+33+318+224+194+325+98+119+500+328+286+302+276+464+362+5+411+378+129+34+375+415+344+227+278+389+394+308+470+216+265+494+126+6+82+469+207+12+363+8+134+14+377+247+498+157+426+118+222+219+53+359+199+92+468+100+127+417+236+84+54+313
183+189+117+322+177+400+487+396+343+330+341+419+155+457+41+360+397+249+435+408+310+154+2+376+106+392+367+93+388+111+370+347+287+139+291+252+260+140+13+412+437+234+32+369+445+196+213+447+253+250+441+420+77+24+309+373+423+478+3+50+361+121+496+58+149+243+23+379+37+137+450+336+132+168+481+86+205+422+460+67+19+293+352+402+7+491+68+329+251+63+51+334+172+492+356+270+459+327+399+458+27+416+30+476+143+382+178+144+427+223+240+147+209+110+301+150+438+284+43+418+188+319+317+215+304+81+300+1+436+273+4+467+472+462+294+466+211+428+94+451+200+45+136+214+212+210+238+114+292+430+263+414+281+159+261+112+87+456+398+368+264+141+96+345+230+409+355+461+242+198+105+171+432+424+52+314+383+337+237+244+197+122+262+156+401+488+473+28+145+29+483+340+364+486+385+499+59+239+275+109+115+495+391+185+42+339+64+429+372+184+47+453+138+74+18+296+316+354+282+497+173+298+474+151+283+10+15+89+271+346+381+321+187+246+206+390+374+324+228+192+351+66+365+434+142+384+463+490+233+482+56+186+485+202+454+221+305+79+153+101+116+165+274+39+217+46+299+88+148+410+71+21+332+174+49+290+179+443+348+335+258+36+297+175+162+107+55+471+267+257+431+69+331+57+226+406+285+180+268+439+161+269+11+146+38+255+25+170+190+433+130+248+193+254+480+17+303+80+259+266+35+446+407+320+277+279+256+288+358+357+44+208+135+113+103+405+20+102+342+326+203+232+166+475+31+421+73+104+425+75+131+349+449+65+455+477+26+231+333+97+120+387+169+70+404+218+440+315+22+280+338+124+403+191+195+393+125+160+311+489+323+163+225+16+380+353+395+85+62+306+413+72+220+452+99+245+133+272+128+181+350+289+295+444+78+108+442+95+312+371+204+90+167+182+366+448+76+83+40+386+241+176+307+493+229+479+465+235+61+91+9+123+60+484+48+164+158+201+152+33+318+224+194+325+98+119+500+328+286+302+276+464+362+5+411+378+129+34+375+415+344+227+278+389+394+308+470+216+265+494+126+6+82+469+207+12+363+8+134+14+377+247+498+157+426+118+222+219+53+359+199+92+468+100+127+417+236+84+54+313
183+189+117+322+177+400+487+396+343+330+341+419+155+457+41+360+397+249+435+408+310+154+2+376+106+392+367+93+388+111+370+347+287+139+291+252+260+140+13+412+437+234+32+369+445+196+213+447+253+250+441+420+77+24+309+373+423+478+3+50+361+121+496+58+149+243+23+379+37+137+450+336+132+168+481+86+205+422+460+67+19+293+352+402+7+491+68+329+251+63+51+334+172+492+356+270+459+327+399+458+27+416+30+476+143+382+178+144+427+223+240+147+209+110+301+150+438+284+43+418+188+319+317+215+304+81+300+1+436+273+4+467+472+462+294+466+211+428+94+451+200+45+136+214+212+210+238+114+292+430+263+414+281+159+261+112+87+456+398+368+264+141+96+345+230+409+355+461+242+198+105+171+432+424+52+314+383+337+237+244+197+122+262+156+401+488+473+28+145+29+483+340+364+486+385+499+59+239+275+109+115+495+391+185+42+339+64+429+372+184+47+453+138+74+18+296+316+354+282+497+173+298+474+151+283+10+15+89+271+346+381+321+187+246+206+390+374+324+228+192+351+66+365+434+142+384+463+490+233+482+56+186+485+202+454+221+305+79+153+101+116+165+274+39+217+46+299+88+148+410+71+21+332+174+49+290+179+443+348+335+258+36+297+175+162+107+55+471+267+257+431+69+331+57+226+406+285+180+268+439+161+269+11+146+38+255+25+170+190+433+130+248+193+254+480+17+303+80+259+266+35+446+407+320+277+279+256+288+358+357+44+208+135+113+103+405+20+102+342+326+203+232+166+475+31+421+73+104+425+75+131+349+449+65+455+477+26+231+333+97+120+387+169+70+404+218+440+315+22+280+338+124+403+191+195+393+125+160+311+489+323+163+225+16+380+353+395+85+62+306+413+72+220+452+99+245+133+272+128+181+350+289+295+444+78+108+442+95+312+371+204+90+167+182+366+448+76+83+40+386+241+176+307+493+229+479+465+235+61+91+9+123+60+484+48+164+158+201+152+33+318+224+194+325+98+119+500+328+286+302+276+464+362+5+411+378+129+34+375+415+344+227+278+389+394+308+470+216+265+494+126+6+82+469+207+12+363+8+134+14+377+247+498+157+426+118+222+219+53+359+199+92+468+100+127+417+236+84+54+313
